c User generated cnf file
p cnf 6 28
1 1 -6 0 
3 -3 2 0 
1 1 -2 0 
4 -2 5 0 
6 5 -1 0 
2 5 -6 0 
4 3 -2 0 
6 -3 3 0 
3 -2 6 0 
2 1 -5 0 
5 1 -5 0 
2 -5 1 0 
3 6 -5 0 
3 4 -3 0 
4 -4 6 0 
6 -2 3 0 
2 6 -3 0 
4 3 -5 0 
3 2 -3 0 
5 -3 2 0 
1 3 -5 0 
2 5 -3 0 
5 2 -2 0 
4 1 -5 0 
5 -3 6 0 
2 -1 3 0 
5 -6 1 0 
1 6 -6 0 
